
        $ From http://www.csplib.org/Problems/prob009/data/helmut.pdf
        $ Problem number 18
        $ Sequence length : 23
        language ESSENCE' 1.0
        letting sizemaster be 215
        letting sizes be sequence(1,3,4,9,10,11,12,16,17,18,22,23,24,40,41,60,66,68,70,71,74,76,79)
        